% seed = 0

mint = 16;
% maxt = 77;

nActs = 27;
dur = [0,3,3,5,3,2,5,3,1,5,2,4,3,1,4,4,4,5,5,2,1,5,2,2,2,1,0];

nSkills = 8;
sreq = [| 0,0,0,0,0,0,0,0,
	| 1,2,0,1,1,0,0,0,
	| 0,2,1,0,0,0,2,0,
	| 1,1,2,0,0,1,0,0,
	| 4,1,0,0,0,0,0,0,
	| 0,1,1,1,1,0,0,0,
	| 0,2,0,0,1,0,0,1,
	| 0,2,0,0,0,0,1,1,
	| 2,0,0,1,0,1,0,0,
	| 4,0,0,0,0,0,0,0,
	| 1,0,1,0,0,1,0,0,
	| 1,1,0,0,0,0,0,1,
	| 1,1,0,0,0,0,0,1,
	| 1,0,0,1,1,0,0,0,
	| 2,0,0,0,0,0,0,1,
	| 1,1,1,0,0,1,0,1,
	| 0,1,0,0,1,0,2,1,
	| 2,0,0,0,0,0,2,1,
	| 1,0,0,1,1,1,0,1,
	| 3,0,0,0,0,1,0,1,
	| 0,2,0,0,1,0,1,0,
	| 0,0,1,0,2,1,0,0,
	| 2,0,0,1,0,0,1,0,
	| 1,0,0,2,1,0,0,0,
	| 1,1,1,0,0,0,0,1,
	| 0,2,1,0,0,0,1,0,
	| 0,0,0,0,0,0,0,0, |];

% SumOfsreq = 104;

nResources = 10;
mastery = [| false,true,true,true,true,true,true,false,
	| true,true,true,false,true,true,true,false,
	| false,false,true,true,true,true,true,true,
	| true,false,true,true,true,false,true,false,
	| true,true,true,true,false,false,false,true,
	| false,true,false,true,true,true,false,true,
	| true,true,true,false,false,true,false,true,
	| false,true,true,false,false,false,true,true,
	| true,true,false,false,true,true,false,false,
	| false,true,true,false,false,false,true,true, |];

nPrecs = 91;
pred = [1,1,1,1,1,1,1,1,1,1,1,1,1,1,1,1,1,1,1,1,1,1,1,1,1,2,2,2,2,3,3,3,3,3,3,4,4,5,5,5,5,6,6,6,7,7,7,8,8,8,8,9,9,9,9,10,10,11,11,11,11,11,12,12,13,13,13,14,14,14,14,15,15,16,16,16,17,17,17,18,19,20,20,21,22,23,23,24,24,25,26];
succ = [2,3,4,5,6,7,8,9,10,11,12,13,14,15,16,17,18,19,20,21,22,23,24,25,26,9,26,27,20,6,8,11,17,25,27,27,7,27,24,23,8,27,14,15,25,18,27,25,10,27,18,17,19,27,16,18,27,19,12,13,27,24,27,15,27,21,23,17,27,22,15,27,21,26,19,27,27,21,22,27,27,27,22,27,27,27,24,26,27,27,27];

nUnrels = 221;
unpred = [2,2,2,2,2,2,2,2,2,2,2,2,2,2,2,2,3,3,3,3,3,3,4,4,4,4,4,4,4,4,4,4,4,4,4,4,4,4,4,4,4,5,5,5,5,5,5,5,5,5,5,5,5,5,5,6,6,6,6,6,6,6,6,6,6,6,6,6,6,6,7,7,7,7,7,7,7,7,7,7,7,7,7,7,7,7,7,8,8,8,8,8,8,8,8,8,8,8,8,8,8,8,9,9,9,9,9,9,9,9,9,9,9,10,10,10,10,10,10,10,10,10,10,10,10,10,10,10,11,11,11,11,11,11,11,12,12,12,12,12,12,12,12,12,12,12,12,13,13,13,13,13,13,13,13,13,14,14,14,14,14,14,14,14,15,15,15,15,15,15,15,15,15,15,16,16,16,16,16,16,16,16,17,17,17,17,17,17,17,18,18,18,18,18,18,18,18,19,19,19,19,19,19,19,20,20,20,20,20,21,21,21,21,21,22,22,22,22,23,24,25];
unsucc = [3,4,5,6,7,8,10,11,12,13,14,15,18,23,24,25,4,5,7,9,16,20,5,6,8,9,10,11,12,13,14,15,16,17,19,20,21,22,23,24,26,6,7,9,11,12,13,14,15,16,17,19,20,21,22,7,8,9,10,11,12,13,16,18,19,20,23,24,25,26,8,9,10,11,12,13,14,15,16,17,19,20,21,22,23,24,26,9,11,12,13,14,15,16,17,19,20,21,22,23,24,26,10,11,12,13,14,15,18,20,23,24,25,11,12,13,14,15,16,17,19,20,21,22,23,24,25,26,14,16,17,18,20,22,25,13,14,16,17,18,19,20,22,23,24,25,26,14,15,16,17,18,19,20,22,25,16,18,19,20,23,24,25,26,16,17,18,19,20,22,23,24,25,26,17,18,20,21,22,23,24,25,18,19,20,23,24,25,26,19,20,21,22,23,24,25,26,20,21,22,23,24,25,26,21,23,24,25,26,22,23,24,25,26,23,24,25,26,25,25,26];

USEFUL_RES = [{},
	{1,2,3,4,5,6,7,8,9,10},
	{1,2,3,4,5,6,7,8,9,10},
	{1,2,3,4,5,6,7,8,9,10},
	{1,2,4,5,6,7,8,9,10},
	{1,2,3,4,5,6,7,8,9,10},
	{1,2,3,4,5,6,7,8,9,10},
	{1,2,3,4,5,6,7,8,9,10},
	{1,2,3,4,5,6,7,9},
	{2,4,5,7,9},
	{1,2,3,4,5,6,7,8,9,10},
	{1,2,3,4,5,6,7,8,9,10},
	{1,2,3,4,5,6,7,8,9,10},
	{1,2,3,4,5,6,7,9},
	{2,3,4,5,6,7,8,9,10},
	{1,2,3,4,5,6,7,8,9,10},
	{1,2,3,4,5,6,7,8,9,10},
	{1,2,3,4,5,6,7,8,9,10},
	{1,2,3,4,5,6,7,8,9,10},
	{1,2,3,4,5,6,7,8,9,10},
	{1,2,3,4,5,6,7,8,9,10},
	{1,2,3,4,5,6,7,8,9,10},
	{1,2,3,4,5,6,7,8,9,10},
	{1,2,3,4,5,6,7,9},
	{1,2,3,4,5,6,7,8,9,10},
	{1,2,3,4,5,6,7,8,9,10},
	{}];

POTENTIAL_ACT = [{2,3,4,5,6,7,8,9,11,12,13,14,16,17,18,19,20,21,22,23,24,25,26},
	{2,3,4,5,6,7,8,9,10,11,12,13,14,15,16,17,18,19,20,21,22,23,24,25,26},
	{2,3,4,6,7,8,9,11,12,13,14,15,16,17,18,19,20,21,22,23,24,25,26},
	{2,3,4,5,6,7,8,9,10,11,12,13,14,15,16,17,18,19,20,21,22,23,24,25,26},
	{2,3,4,5,6,7,8,9,10,11,12,13,14,15,16,17,18,19,20,21,22,23,24,25,26},
	{2,3,4,5,6,7,8,9,11,12,13,14,15,16,17,18,19,20,21,22,23,24,25,26},
	{2,3,4,5,6,7,8,9,10,11,12,13,14,15,16,17,18,19,20,21,22,23,24,25,26},
	{2,3,4,5,6,7,8,11,12,13,15,16,17,18,19,20,21,22,23,25,26},
	{2,3,4,5,6,7,8,9,10,11,12,13,14,15,16,17,18,19,20,21,22,23,24,25,26},
	{2,3,4,5,6,7,8,11,12,13,15,16,17,18,19,20,21,22,23,25,26}];
